
  22   10
  10   10   10   10   10   10   10   10   10   10

   0   0   0   0   0   0   0   0   0   0   0   4 2 4 7 18 
   2  10  10  10  10  10  10  10  10  10  10   2 8 3 
   3  10  10  10  10  10  10  10  10  10  10   3 14 11 5 
   1  10  10  10  10  10  10  10  10  10  10   4 16 11 10 9 
  10  10  10  10  10  10  10  10  10  10  10   1 6 
   4  10  10  10  10  10  10  10  10  10  10   2 16 10 
   7  10  10  10  10  10  10  10  10  10  10   2 14 8 
   3  10  10  10  10  10  10  10  10  10  10   2 21 13 
   8  10  10  10  10  10  10  10  10  10  10   2 14 13 
  10  10  10  10  10  10  10  10  10  10  10   1 12 
   9  10  10  10  10  10  10  10  10  10  10   1 12 
   3  10  10  10  10  10  10  10  10  10  10   1 13 
   3  10  10  10  10  10  10  10  10  10  10   1 15 
   8  10  10  10  10  10  10  10  10  10  10   1 15 
   9  10  10  10  10  10  10  10  10  10  10   2 19 17 
   9  10  10  10  10  10  10  10  10  10  10   2 21 19 
   7  10  10  10  10  10  10  10  10  10  10   1 20 
   1  10  10  10  10  10  10  10  10  10  10   1 21 
   4  10  10  10  10  10  10  10  10  10  10   1 22
   9  10  10  10  10  10  10  10  10  10  10   1 22
   6  10  10  10  10  10  10  10  10  10  10   1 22
   0   0   0   0   0   0   0   0   0   0   0   0 
